\ENCODING=ISO-8859-1
\Problem name: /Users/perinita/Documents/MathCareer/Natashia-Boland/BLM-BOMILP/instances/C20/1dat.lp

Minimize
 obj: 0.0983641612122312 y(1) + 0.0409078409349775 y(5)
      + 0.010061475439926 y(6) + 0.120208153944333 y(9) - 2.07438498254871 x(0)
      + 0.00317730803340055 y(0) - 0.0444823124725531 y(2)
      - 0.0562648297647286 y(3) + 0.0853901534075305 y(7)
      + 0.0914799938057058 y(8) - 0.421390477976729 x(1)
      + 0.0198581752112261 y(4) + 0.00423641071779457 x(2)
      + 1.73772271880176 x(3) + 1.41562311687622 x(4) + 1.28429438481498 x(5)
      - 1.5118690727345 x(6) - 0.11848711208961 x(7) + 0.279603106966448 x(8)
      + 0.730383684266968 x(9)
Subject To
 c1:   3 y(1) + 3 y(5) - y(6) + 12 y(9) + 17 x(0) <= 80
 c2:   - y(1) + 2 y(6) - y(0) + 14 y(2) + 15 y(3) + 4 y(7) + 15 y(8) + 8 x(1)
       <= 92
 c3:   6 y(6) + y(9) + 6 y(0) + 8 y(3) - y(7) + 12 y(4) + 12 x(2) <= 92
 c4:   20 x(3) <= 81
 c5:   19 y(6) + 14 y(3) - x(4) <= 99
 c6:   9 y(1) + 19 y(9) + 10 y(8) + 15 x(5) <= 93
 c7:   7 y(1) + 18 y(5) + 2 y(6) + 12 y(0) + 4 y(8) + 8 y(4) + 19 x(6) <= 77
 c8:   3 y(6) + 4 y(0) + 3 y(2) + 14 x(7) <= 52
 c9:   17 y(3) + 6 x(8) <= 89
 c10:  17 y(1) + 3 y(6) + 6 y(2) + 9 y(8) + 3 x(9) <= 65
 c11:  y(6) + 4 y(9) + 7 y(0) - y(8) <= 62
 c12:  3 y(1) + 7 y(9) + 18 y(0) + 7 y(2) + 20 y(4) <= 81
 c13:  9 y(1) + 2 y(5) + 2 y(6) + 6 y(0) + y(7) + 8 y(8) <= 95
 c14:  2 y(9) + 3 y(3) + 19 y(4) <= 65
 c15:  4 y(5) + 10 y(3) + 7 y(8) <= 66
 c16:  10 y(1) + 4 y(9) + 7 y(0) + y(4) <= 82
 c17:  6 y(5) + 8 y(6) + 7 y(9) + 7 y(0) + 4 y(2) + 9 y(7) + 3 y(8) <= 79
 c18:  9 y(1) + 11 y(6) + 2 y(0) + 15 y(2) - y(7) <= 70
 c19:  2 y(6) + 13 y(0) + 9 y(8) <= 84
 c20:  x(0) + x(1) + x(2) + x(3) + x(4) + x(5) + x(6) + x(7) + x(8) + x(9) <= 3
 c774: 9 y(1) + 7 y(5) - 7 y(6) + 9 y(9) - 167 x(0) - 8 y(0) + 2 y(2) - 5 y(3)
       + 5 y(7) + 8 y(8) + 16 x(1) + 5 y(4) + 136 x(2) + 98 x(3) + 29 x(4)
       + 48 x(5) - 80 x(6) + 60 x(7) - 99 x(8) + 141 x(9) <= -302.785814285714
 c775: 9 y(1) + 7 y(5) - 7 y(6) + 9 y(9) - 167 x(0) - 8 y(0) + 2 y(2) - 5 y(3)
       + 5 y(7) + 8 y(8) + 16 x(1) + 5 y(4) + 136 x(2) + 98 x(3) + 29 x(4)
       + 48 x(5) - 80 x(6) + 60 x(7) - 99 x(8) + 141 x(9) >= -302.793095616625
 c776: 5 y(1) - y(5) + 8 y(6) + 8 y(9) - 127 x(0) + 8 y(0) - 8 y(2) - 3 y(3)
       + 7 y(7) + 5 y(8) - 73 x(1) - 2 y(4) - 128 x(2) + 146 x(3) + 167 x(4)
       + 131 x(5) - 132 x(6) - 73 x(7) + 132 x(8) - 33 x(9)
       <= -252.582784465137
 c777: 5 y(1) - y(5) + 8 y(6) + 8 y(9) - 127 x(0) + 8 y(0) - 8 y(2) - 3 y(3)
       + 7 y(7) + 5 y(8) - 73 x(1) - 2 y(4) - 128 x(2) + 146 x(3) + 167 x(4)
       + 131 x(5) - 132 x(6) - 73 x(7) + 132 x(8) - 33 x(9)
       >= -252.589668632544
Bounds
 0 <= x(0) <= 1
 0 <= x(1) <= 1
 0 <= x(2) <= 1
 0 <= x(3) <= 1
 0 <= x(4) <= 1
 0 <= x(5) <= 1
 0 <= x(6) <= 1
 0 <= x(7) <= 1
 0 <= x(8) <= 1
 0 <= x(9) <= 1
Binaries
 x(0)  x(1)  x(2)  x(3)  x(4)  x(5)  x(6)  x(7)  x(8)  x(9) 
End
